NAME: cuum30.tsp
TYPE: TSP
COMMENT: User-generated TSP file
DIMENSION: 30
EDGE_WEIGHT_TYPE: EUC_2D
NODE_COORD_SECTION
1 9.0 20.0
2 25.0 28.0
3 1.0 23.0
4 14.0 1.0
5 9.0 17.0
6 2.0 19.0
7 13.0 30.0
8 16.0 12.0
9 13.0 10.0
10 5.0 24.0
11 29.0 6.0
12 21.0 7.0
13 18.0 12.0
14 19.0 29.0
15 1.0 24.0
16 24.0 10.0
17 9.0 3.0
18 12.0 25.0
19 19.0 16.0
20 6.0 19.0
21 26.0 2.0
22 1.0 16.0
23 29.0 17.0
24 27.0 16.0
25 5.0 28.0
26 3.0 19.0
27 29.0 7.0
28 16.0 1.0
29 16.0 18.0
30 23.0 5.0
EOF





